TYPE : Vertex Cover
DIMENSION: 29
EDGE_DATA_SECTION:
0 1
0 11
0 13
0 17
0 26
1 14
1 19
1 27
2 3
2 6
2 7
2 10
2 13
2 19
2 23
2 26
2 28
3 4
3 9
3 12
3 24
3 25
3 26
4 5
4 14
4 17
4 23
4 24
4 27
5 14
5 15
5 16
5 17
5 19
6 9
6 16
6 25
7 13
7 17
7 18
7 21
7 23
7 24
7 27
8 9
8 10
8 11
8 14
8 15
9 21
10 11
10 16
10 25
10 26
11 15
11 16
11 18
11 20
12 26
12 27
13 17
13 18
13 21
13 23
13 24
13 27
14 17
14 19
14 20
14 24
14 28
15 20
15 26
15 28
16 22
16 26
17 19
17 20
17 24
17 26
18 19
18 27
18 28
19 24
19 27
19 28
20 21
20 22
20 25
21 22
21 25
22 26
24 27
26 28
27 28
-1
VERTEX_DEGREE:
5.0 4.0 9.0 7.0 7.0 6.0 4.0 8.0 5.0 4.0 6.0 7.0 3.0 9.0 9.0 6.0 6.0 10.0 6.0 9.0 7.0 6.0 4.0 4.0 8.0 5.0 10.0 9.0 7.0
VERTEX_COVER:
0 2 3 4 6 7 8 10 13 14 15 16 17 18 19 20 21 26 27
EOF
